generated by phonopy                     | ab reference unitcell
1.0
  6.4063926054694091  -0.0000000000000000  -0.0000000000000000
  -3.2031963027347037  5.5480987429532851  0.0000000000000000
  -0.0000000000000000  -0.0000000000000000  5.6483872215605713
   Co   H    C    N 
     1     3     6     6
Direct
     0.0000000000000000    0.0000000000000000    0.0000000000000000
     0.0000000000000000    0.5000000000000000    0.5000000000000000
     0.5000000000000000    0.0000000000000000    0.5000000000000000
     0.5000000000000000    0.5000000000000000    0.5000000000000000
     0.2352505985205370    0.2352505985205370    0.8069934440713737
     0.2352505985205370    0.0000000000000000    0.1930065559286264
     0.0000000000000000    0.7647494014794627    0.8069934440713737
     0.0000000000000000    0.2352505985205370    0.1930065559286264
     0.7647494014794627    0.7647494014794627    0.1930065559286264
     0.7647494014794627    0.0000000000000000    0.8069934440713737
     0.0000000000000000    0.6204151686226791    0.6769087683782203
     0.0000000000000000    0.3795848313773211    0.3230912316217797
     0.3795848313773211    0.0000000000000000    0.3230912316217797
     0.6204151686226791    0.0000000000000000    0.6769087683782203
     0.6204151686226791    0.6204151686226791    0.3230912316217797
     0.3795848313773211    0.3795848313773211    0.6769087683782203

  0.00000000E+00  0.00000000E+00  0.00000000E+00
  0.00000000E+00  0.00000000E+00  0.00000000E+00
  0.00000000E+00  0.00000000E+00  0.00000000E+00
  0.00000000E+00  0.00000000E+00  0.00000000E+00
  0.00000000E+00  0.00000000E+00  0.00000000E+00
  0.00000000E+00  0.00000000E+00  0.00000000E+00
  0.00000000E+00  0.00000000E+00  0.00000000E+00
  0.00000000E+00  0.00000000E+00  0.00000000E+00
  0.00000000E+00  0.00000000E+00  0.00000000E+00
  0.00000000E+00  0.00000000E+00  0.00000000E+00
  0.00000000E+00  0.00000000E+00  0.00000000E+00
  0.00000000E+00  0.00000000E+00  0.00000000E+00
  0.00000000E+00  0.00000000E+00  0.00000000E+00
  0.00000000E+00  0.00000000E+00  0.00000000E+00
  0.00000000E+00  0.00000000E+00  0.00000000E+00
  0.00000000E+00  0.00000000E+00  0.00000000E+00
